proyfinal/src/viki/013/andrea/andrea-localstore/experimentInOfficeAgust.take6/worker_3/a0387f5b-b0b4-49d9-8c86-fdbb5e32638f.als.cnf.out
Reading from standard input... Use '--help' for help.
============================[ Problem Statistics ]=============================
|                                                                             |
|  Number of variables:         87638                                         |
|  Number of clauses:          161767                                         |
|  Parse time:                   0.04 s                                       |
|                                                                             |
============================[ Search Statistics ]==============================
| Conflicts |          ORIGINAL         |          LEARNT          | Progress |
|           |    Vars  Clauses Literals |    Limit  Clauses Lit/Cl |          |
===============================================================================
|       100 |   63222   108258   270407 |    39694      100     14 | 27.860 % |
|       250 |   63222   108258   270407 |    43664      250     17 | 27.860 % |
|       475 |   63217   108214   270317 |    48030      473     36 | 27.866 % |
|       812 |   63217   108198   270273 |    52833      788     49 | 27.866 % |
|      1318 |   63217   108198   270273 |    58116     1294     60 | 27.866 % |
|      2077 |   55027    83138   208064 |    63928     1942     58 | 37.211 % |
|      3216 |   55026    83136   208060 |    70321     3079     59 | 37.212 % |
|      4924 |   54894    82556   206695 |    77353     4734     54 | 37.363 % |
|      7486 |   54646    81570   204343 |    85088     6166     56 | 37.646 % |
|     11330 |   54569    81256   203594 |    93597     9982     60 | 37.734 % |
|     17096 |   54377    80419   201622 |   102957    14998     62 | 37.953 % |
===============================================================================
restarts              : 63
conflicts             : 18086          (9255 /sec)
decisions             : 61372          (0.00 % random) (31406 /sec)
propagations          : 20984121       (10738306 /sec)
conflict literals     : 1082057        (44.77 % deleted)
Memory used           : 30.65 MB
CPU time              : 1.95414 s

INDETERMINATE
